65	65	65	65	65	65	65	25	65	65	65	65	65	65	65	
65	65	65	65	65	65	65	25	65	65	65	65	65	65	65	
65	65	65	65	65	65	14	25	44	65	65	65	65	65	65	
65	65	65	65	65	65	25	14	25	65	65	65	65	65	65	
65	65	65	65	65	25	25	25	14	25	65	65	65	65	65	
65	65	65	65	65	25	25	25	25	14	65	65	65	65	65	
65	65	65	65	17	25	25	43	25	25	25	65	65	65	65	
65	65	65	65	25	17	25	25	25	25	25	65	65	65	65	
65	65	65	25	25	25	17	25	25	25	43	25	65	65	65	
65	65	65	25	25	25	25	17	25	25	25	25	65	65	65	
65	65	139	25	25	25	25	25	17	25	25	25	25	65	65	
65	65	25	139	25	25	25	25	25	17	25	25	25	65	65	
65	25	25	25	139	25	43	25	25	25	17	25	25	25	65	
65	25	25	25	25	139	25	25	25	25	25	17	25	25	65	
25	25	43	25	25	25	139	25	25	25	25	25	17	25	25	
25	25	25	25	25	25	25	139	25	25	43	25	25	17	25	
65	65	65	65	65	65	102	103	103	65	65	65	65	65	65	
65	65	65	65	65	65	103	103	103	65	65	65	65	65	65	
